40	100	100	100
76	54	85
94	75	70
64	55	89
54	89	59
55	67	59
64	68	75
54	80	98
96	85	51
86	92	89
56	91	60
72	61	90
80	81	67
87	75	88
69	51	66
86	99	87
52	94	67
84	70	73
53	57	82
79	78	73
56	71	62
98	52	93
84	54	89
62	81	91
99	72	86
97	75	79
54	55	76
91	62	61
85	80	54
69	93	74
96	74	95
99	87	97
78	70	57
63	66	50
85	72	84
60	90	65
55	56	58
50	67	65
56	68	83
72	84	80
80	58	69
